<instance format="XCSP3" type="CSP">
  <variables>
    <var id="x0"> 3 6 9 </var>
    <var id="x1"> 8 10 13 </var>
    <var id="x2"> 3 5 6 8 13 </var>
    <var id="x3"> 3 5 8 9 13 </var>
    <var id="x4"> 3 5 9 13 </var>
    <var id="x5"> 6 8 10 </var>
    <var id="x6"> 3 5 9 10 13 </var>
    <var id="x7"> 0 2 5 8 12 </var>
    <var id="x8"> 1 5 8 12 </var>
    <var id="x9"> 5 8 12 </var>
    <var id="x10"> 1 4 5 12 </var>
    <var id="x11"> 0 2 4 5 8 12 </var>
    <var id="x12"> 1 2 4 8 </var>
    <var id="x13"> 0 5 12 </var>
    <var id="x14"> 4 13 14 </var>
    <var id="x15"> 2 4 6 12 14 </var>
    <var id="x16"> 2 13 14 </var>
    <var id="x17"> 6 14 </var>
    <var id="x18"> 1 2 4 6 </var>
    <var id="x19"> 1 2 4 6 </var>
    <var id="x20"> 12 13 </var>
    <var id="x21"> 0 1 3 7 9 </var>
    <var id="x22"> 3 4 9 </var>
    <var id="x23"> 1 3 5 </var>
    <var id="x24"> 1 5 </var>
    <var id="x25"> 1 4 5 </var>
    <var id="x26"> 3 5 7 9 </var>
    <var id="x27"> 0 1 4 </var>
    <var id="x28"> 5 6 8 </var>
    <var id="x29"> 2 5 6 14 </var>
    <var id="x30"> 5 6 14 </var>
    <var id="x31"> 5 6 8 14 </var>
    <var id="x32"> 2 5 6 8 </var>
    <var id="x33"> 2 6..8 </var>
    <var id="x34"> 5 9 </var>
    <var id="x35"> 1 2 6 </var>
    <var id="x36"> 0 11 </var>
    <var id="x37"> 2 3 6 12 </var>
    <var id="x38"> 1 2 6 12 </var>
    <var id="x39"> 3 11 12 </var>
    <var id="x40"> 0 3 6 11 </var>
    <var id="x41"> 0..2 6 11 </var>
    <var id="x42"> 0 5 8 12 </var>
    <var id="x43"> 3 6 12 </var>
    <var id="x44"> 3 5 6 8 12 </var>
    <var id="x45"> 3 5 8 12 </var>
    <var id="x46"> 3 5 7 </var>
    <var id="x47"> 0 6 8 </var>
    <var id="x48"> 0 3 5 12 </var>
    <var id="x49"> 0 2 12 13 </var>
    <var id="x50"> 0 3 6 </var>
    <var id="x51"> 2 6 13 </var>
    <var id="x52"> 4 6 12 13 </var>
    <var id="x53"> 2 3 13 </var>
    <var id="x54"> 2..4 6 </var>
    <var id="x55"> 0 2 4 6 </var>
    <var id="x56"> 2 12 </var>
    <var id="x57"> 1 3 7 14 </var>
    <var id="x58"> 1 2 7 10 14 </var>
    <var id="x59"> 1 2 12 14 </var>
    <var id="x60"> 1 12 14 </var>
    <var id="x61"> 1..3 7 </var>
    <var id="x62"> 3 10 12 </var>
    <var id="x63"> 6 9 </var>
    <var id="x64"> 6 10 13 </var>
    <var id="x65"> 4 8 10 13 </var>
    <var id="x66"> 5 6 13 </var>
    <var id="x67"> 5 8 9 13 </var>
    <var id="x68"> 4..6 13 </var>
    <var id="x69"> 4..6 8 </var>
    <var id="x70"> 0 11 13 </var>
    <var id="x71"> 3 6 9 14 </var>
    <var id="x72"> 6 13 14 </var>
    <var id="x73"> 3 9 13 14 </var>
    <var id="x74"> 0 3 6 11 14 </var>
    <var id="x75"> 0 6 </var>
    <var id="x76"> 3 6 </var>
    <var id="x77"> 8 13 14 </var>
    <var id="x78"> 3 6 14 </var>
    <var id="x79"> 3 5 8 13 </var>
    <var id="x80"> 1 5 6 13 14 </var>
    <var id="x81"> 3 5 6 8 14 </var>
    <var id="x82"> 5 6 8 </var>
    <var id="x83"> 3 5 13 </var>
    <var id="x84"> 5 11..13 </var>
    <var id="x85"> 1 6 14 </var>
    <var id="x86"> 1 6 13 14 </var>
    <var id="x87"> 11 13 14 </var>
    <var id="x88"> 1 5 6 12 13 </var>
    <var id="x89"> 1 5 6 12..14 </var>
    <var id="x90"> 5 6 12 </var>
    <var id="x91"> 2 8 11..13 </var>
    <var id="x92"> 14 </var>
    <var id="x93"> 2 10 13 14 </var>
    <var id="x94"> 8 11..13 </var>
    <var id="x95"> 8 11 14 </var>
    <var id="x96"> 2 8 </var>
    <var id="x97"> 2 8 10 11 </var>
    <var id="x98"> 2 13 14 </var>
    <var id="x99"> 0 4 8 11 13 14 </var>
    <var id="x100"> 2 4 14 </var>
    <var id="x101"> 5 8 13 </var>
    <var id="x102"> 2 5 13 14 </var>
    <var id="x103"> 0 5 8 11 14 </var>
    <var id="x104"> 0 2 4 5 8 </var>
    <var id="x105"> 0 2 4 8 11 </var>
  </variables>
  <constraints>
    <group>
      <allDifferent> %... </allDifferent>
      <args> x0 x1 x2 x3 x4 x5 x6 </args>
      <args> x7 x8 x9 x10 x11 x12 x13 </args>
      <args> x14 x15 x16 x17 x18 x19 x20 </args>
      <args> x21 x22 x23 x24 x25 x26 x27 </args>
      <args> x28 x29 x30 x31 x32 x33 x34 </args>
      <args> x35 x36 x37 x38 x39 x40 x41 </args>
      <args> x42 x43 x44 x45 x46 x47 x48 </args>
      <args> x49 x50 x51 x52 x53 x54 x55 </args>
      <args> x56 x57 x58 x59 x60 x61 x62 </args>
      <args> x63 x64 x65 x66 x67 x68 x69 </args>
      <args> x70 x71 x72 x73 x74 x75 x76 </args>
      <args> x77 x78 x79 x80 x81 x82 x83 </args>
      <args> x84 x85 x86 x87 x88 x89 x90 </args>
      <args> x91 x92 x93 x94 x95 x96 x97 </args>
      <args> x98 x99 x100 x101 x102 x103 x104 x105 </args>
      <args> x7 x42 x49 x56 x70 x84 x91 </args>
      <args> x0 x21 x50 x57 x63 x85 x92 </args>
      <args> x35 x51 x58 x64 x86 x93 x98 </args>
      <args> x1 x14 x36 x65 x77 x87 x99 </args>
      <args> x15 x22 x37 x43 x71 x78 x100 </args>
      <args> x2 x8 x23 x28 x44 x88 x101 </args>
      <args> x24 x29 x38 x59 x66 x72 x89 </args>
      <args> x3 x9 x39 x45 x67 x79 x94 </args>
      <args> x10 x25 x30 x52 x60 x68 x80 </args>
      <args> x4 x16 x26 x46 x53 x73 x102 </args>
      <args> x17 x31 x40 x74 x81 x95 x103 </args>
      <args> x11 x32 x69 x75 x82 x90 x104 </args>
      <args> x12 x18 x33 x54 x61 x76 x96 </args>
      <args> x5 x19 x27 x41 x47 x55 x97 x105 </args>
      <args> x6 x13 x20 x34 x48 x62 x83 </args>
    </group>
  </constraints>
</instance>

